Min
	x_0_7 + x_1_7 + x_2_7 + x_3_7 + x_4_7

Subject to
	x_0_1 + x_0_2 + x_0_3 + x_0_4 + x_0_5 + x_0_6 + x_0_7 = 1
	x_1_1 + x_1_2 + x_1_3 + x_1_4 + x_1_5 + x_1_6 + x_1_7 = 1
	x_2_1 + x_2_2 + x_2_3 + x_2_4 + x_2_5 + x_2_6 + x_2_7 = 1
	x_3_1 + x_3_2 + x_3_3 + x_3_4 + x_3_5 + x_3_6 + x_3_7 = 1
	x_4_1 + x_4_2 + x_4_3 + x_4_4 + x_4_5 + x_4_6 + x_4_7 = 1
	1 x_0_1 + 2 x_1_1 + 3 x_2_1 + 2 x_3_1 + 3 x_4_1 <= 4
	1 x_0_2 + 2 x_1_2 + 3 x_2_2 + 2 x_3_2 + 3 x_4_2 <= 3
	1 x_0_3 + 2 x_1_3 + 3 x_2_3 + 2 x_3_3 + 3 x_4_3 <= 5
	1001 x_0_1 <= 1002
	1 x_0_1 + 1002 x_1_1 <= 1003
	1 x_0_1 + 2 x_1_1 + 1003 x_2_1 <= 1004
	1 x_0_1 + 2 x_1_1 + 3 x_2_1 + 1002 x_3_1 <= 1004
	1 x_0_1 + 2 x_1_1 + 3 x_2_1 + 2 x_3_1 + 1003 x_4_1 <= 1005
	1001 x_0_2 <= 1002
	1 x_0_2 + 1002 x_1_2 <= 1003
	1 x_0_2 + 2 x_1_2 + 1003 x_2_2 <= 1004
	1 x_0_2 + 2 x_1_2 + 3 x_2_2 + 1002 x_3_2 <= 1004
	1 x_0_2 + 2 x_1_2 + 3 x_2_2 + 2 x_3_2 + 1003 x_4_2 <= 1005
	1001 x_0_3 <= 1002
	1 x_0_3 + 1002 x_1_3 <= 1003
	1 x_0_3 + 2 x_1_3 + 1003 x_2_3 <= 1004
	1 x_0_3 + 2 x_1_3 + 3 x_2_3 + 1002 x_3_3 <= 1004
	1 x_0_3 + 2 x_1_3 + 3 x_2_3 + 2 x_3_3 + 1003 x_4_3 <= 1005
	1001 x_0_4 <= 997
	1 x_0_4 + 1002 x_1_4 <= 998
	1 x_0_4 + 2 x_1_4 + 1003 x_2_4 <= 999
	1 x_0_4 + 2 x_1_4 + 3 x_2_4 + 1002 x_3_4 <= 999
	1 x_0_4 + 2 x_1_4 + 3 x_2_4 + 2 x_3_4 + 1003 x_4_4 <= 1000
	1001 x_0_5 <= 997
	1 x_0_5 + 1002 x_1_5 <= 998
	1 x_0_5 + 2 x_1_5 + 1003 x_2_5 <= 999
	1 x_0_5 + 2 x_1_5 + 3 x_2_5 + 1002 x_3_5 <= 999
	1 x_0_5 + 2 x_1_5 + 3 x_2_5 + 2 x_3_5 + 1003 x_4_5 <= 1000
	1001 x_0_6 <= 996
	1 x_0_6 + 1002 x_1_6 <= 997
	1 x_0_6 + 2 x_1_6 + 1003 x_2_6 <= 998
	1 x_0_6 + 2 x_1_6 + 3 x_2_6 + 1002 x_3_6 <= 998
	1 x_0_6 + 2 x_1_6 + 3 x_2_6 + 2 x_3_6 + 1003 x_4_6 <= 999
	
Binary
	x_0_1
	x_0_2
	x_0_3
	x_0_4
	x_0_5
	x_0_6
	x_0_7
	x_1_1
	x_1_2
	x_1_3
	x_1_4
	x_1_5
	x_1_6
	x_1_7
	x_2_1
	x_2_2
	x_2_3
	x_2_4
	x_2_5
	x_2_6
	x_2_7
	x_3_1
	x_3_2
	x_3_3
	x_3_4
	x_3_5
	x_3_6
	x_3_7
	x_4_1
	x_4_2
	x_4_3
	x_4_4
	x_4_5
	x_4_6
	x_4_7
	
End